NAME : XML100_3345_17
DIMENSION : 101
NB_CLUSTERS : 8
CLUSTERING_ALG : DBSCAN
CLUSTERING_PARAMS : eps(102), minSamples(3)
CLUSTERS
1 0
2 1 4 7 11 12 13 16 17 18 19 20 21 23 24 26 28 29 31 37 38 39 42 43 44 46 49 52 54 55 56 57 59 64 68 70 71 72 73 80 82 85 87 88 90 91 93 96 99
3 3 5 8 14 15 30 41 53 66 69 74
4 6 10 22 25 27 35 40 47 48 50 51 60 61 67 76 77 78 79 84 89 92 95
5 32 33 36 45 58 63
6 9 34 62 86 97 98
7 2 65 81 83 94
8 75 100
EOF